language ESSENCE' 1.0

letting jobs = 102
letting horizon = 787
letting resourcesRenew = 2
letting resourcesNonrenew = 2
letting resourceLimits = [77, 74, 492, 486]
letting successors = [[2, 3, 4, 5, 6, 7, 8, 9, 10, 11, 12, 13, 14, 15, 17, 18, 19, 20, 21, 25, 26, 27, 32, 33, 34, 56], [101, 100, 96, 94, 73, 70, 68, 67, 65, 64, 61, 58, 57, 53, 48, 42, 40, 38, 31, 30, 22], [98, 73, 71, 66, 65, 58, 57, 55, 53, 52, 51, 50, 48, 35, 31, 30, 28], [101, 100, 73, 72, 71, 70, 68, 65, 64, 63, 61, 60, 57, 50, 49, 48, 16], [101, 100, 97, 95, 94, 91, 71, 70, 69, 67, 59, 55, 51, 50, 47, 44, 41, 39, 37, 30], [97, 96, 94, 89, 88, 73, 72, 71, 70, 69, 66, 65, 64, 63, 62, 59, 49, 47, 44, 43, 41], [100, 97, 95, 94, 93, 90, 73, 72, 70, 69, 65, 63, 60, 57, 55, 47, 38, 29], [101, 98, 97, 96, 92, 89, 83, 73, 66, 64, 63, 62, 54, 53, 49, 38, 23], [101, 100, 94, 73, 71, 70, 68, 66, 64, 63, 48, 42, 40, 31, 30], [97, 96, 95, 91, 71, 67, 66, 64, 57, 55, 54, 53, 46, 30, 24], [100, 97, 95, 87, 73, 71, 69, 63, 62, 60, 59, 58, 57, 55, 54, 35], [95, 93, 92, 91, 89, 87, 73, 71, 69, 67, 66, 64, 63, 62, 59, 55, 54, 53, 51, 45], [101, 100, 96, 95, 94, 93, 87, 72, 71, 70, 67, 47, 39, 37], [98, 96, 94, 93, 91, 90, 89, 82, 73, 72, 69, 65, 62, 55, 51, 47, 38], [100, 98, 97, 94, 91, 70, 69, 67, 62, 58, 55, 50, 38, 36], [98, 96, 95, 94, 93, 89, 82, 81, 66, 62, 55, 53, 46, 42], [100, 98, 97, 96, 94, 91, 90, 88, 87, 85, 82, 81, 72, 69, 66, 37], [98, 91, 71, 63, 52, 50, 30], [95, 94, 93, 91, 90, 88, 87, 82, 81, 70, 69, 67, 62, 57, 55, 50], [96, 95, 94, 93, 92, 89, 87, 86, 85, 84, 81, 77, 72, 70, 69, 62, 58, 51], [97, 94, 93, 91, 89, 88, 86, 84, 83, 80, 77, 76, 74, 70, 63, 60, 49], [99, 91, 87, 83, 80, 77, 69, 63, 59, 55, 45], [99, 94, 93, 91, 90, 85, 81, 80, 79, 78, 77, 76, 70, 69, 67, 65, 58], [98, 93, 89, 86, 85, 84, 80, 78, 77, 76, 74, 72, 70, 63, 61], [95, 91, 90, 89, 87, 86, 78, 77, 71, 70, 63, 55], [96, 95, 93, 91, 89, 88, 87, 85, 83, 82, 81, 79, 78, 77, 74, 71, 70], [89, 87, 86, 83, 82, 81, 79, 78, 75, 71, 69, 62, 55], [100, 97, 95, 92, 91, 88, 87, 85, 83, 77, 69, 54], [96, 91, 89, 86, 85, 81, 66, 62, 58, 53], [93, 90, 89, 87, 86, 85, 84, 82, 80, 78, 77, 75, 72, 62], [92, 84, 83, 80, 79, 77, 76, 69, 49], [95, 91, 89, 88, 87, 83, 82, 78, 77, 74, 65, 59], [94, 92, 91, 90, 88, 81, 79, 77, 75, 71, 67, 62], [91, 90, 89, 84, 83, 82, 78, 73, 69, 53], [99, 96, 93, 92, 84, 82, 81, 78, 76, 75, 74, 64], [89, 88, 87, 84, 81, 79, 77, 76, 75, 74, 72, 71], [99, 89, 83, 79, 78, 65, 64, 62], [87, 86, 85, 81, 79, 78, 77, 76, 75, 74, 71], [92, 89, 88, 82, 80, 77, 76, 75, 74, 63], [90, 89, 88, 87, 83, 78, 77, 55], [98, 87, 86, 84, 81, 80, 78, 77, 76, 75, 74], [99, 97, 92, 91, 88, 87, 86, 79, 78, 74], [99, 92, 91, 90, 83, 79, 78, 76, 75, 74], [93, 87, 81, 76, 75, 74, 57], [97, 90, 88, 82, 81, 78, 76, 75, 74], [88, 87, 83, 80, 77, 76, 75, 69], [92, 85, 84, 83, 81, 78, 76, 74], [90, 88, 87, 80, 78, 77, 76, 74], [95, 90, 85, 82, 81, 78, 75], [96, 89, 84, 80, 78, 75], [88, 80, 79, 78, 76, 74], [92, 87, 79, 76, 69], [79, 77, 76, 75, 74], [94, 86, 82, 70], [85, 84, 76, 74], [86, 82, 75, 74], [85, 83, 79], [88, 82, 74], [90, 86, 75], [98, 79, 75], [92, 83, 82], [76, 74], [81, 79], [80, 77], [84, 75], [80, 77], [86, 74], [77, 75], [74], [75], [80], [83], [81], [102], [102], [102], [102], [102], [102], [102], [102], [102], [102], [102], [102], [102], [102], [102], [102], [102], [102], [102], [102], [102], [102], [102], [102], [102], [102], [102], [102], []]
letting durations = [[0], [1, 10, 10], [1, 6, 9], [1, 2, 10], [2, 5, 8], [2, 4, 8], [1, 1, 5], [4, 6, 10], [2, 3, 4], [4, 7, 10], [3, 6, 10], [2, 5, 6], [2, 4, 4], [3, 8, 10], [1, 3, 7], [7, 9, 10], [4, 7, 10], [8, 9, 10], [2, 3, 5], [2, 4, 8], [1, 4, 5], [1, 1, 7], [2, 5, 8], [3, 8, 10], [4, 6, 8], [1, 7, 10], [3, 4, 5], [2, 6, 8], [1, 1, 7], [1, 5, 8], [3, 5, 10], [2, 3, 6], [6, 8, 10], [7, 10, 10], [1, 4, 5], [2, 8, 10], [1, 4, 9], [1, 1, 10], [3, 4, 8], [1, 3, 8], [2, 4, 7], [3, 7, 9], [4, 5, 10], [1, 4, 10], [2, 3, 10], [1, 1, 2], [1, 1, 10], [3, 4, 4], [5, 9, 10], [2, 5, 9], [2, 6, 10], [1, 2, 3], [6, 7, 9], [1, 4, 4], [2, 2, 5], [3, 5, 5], [1, 2, 8], [4, 8, 10], [1, 9, 9], [1, 2, 5], [2, 5, 6], [4, 5, 10], [2, 9, 10], [5, 6, 8], [1, 5, 10], [3, 4, 10], [6, 8, 9], [1, 9, 10], [6, 8, 10], [3, 6, 10], [1, 2, 3], [2, 5, 6], [5, 8, 10], [1, 9, 9], [3, 4, 5], [4, 8, 9], [8, 8, 9], [2, 3, 7], [3, 8, 9], [1, 3, 8], [1, 3, 4], [2, 4, 6], [1, 6, 9], [1, 3, 9], [2, 3, 10], [4, 8, 10], [2, 4, 5], [1, 2, 7], [1, 5, 9], [3, 6, 7], [3, 5, 5], [3, 4, 9], [2, 3, 5], [6, 7, 10], [6, 8, 9], [1, 1, 2], [1, 2, 5], [4, 5, 9], [2, 4, 8], [2, 3, 8], [5, 6, 8], [0]]
letting resourceUsage = [[[0, 0, 0, 0]], [[6, 0, 7, 8], [6, 0, 3, 5], [0, 5, 3, 5]], [[0, 5, 9, 8], [9, 0, 6, 7], [0, 3, 5, 5]], [[0, 8, 9, 8], [0, 7, 6, 4], [6, 0, 1, 4]], [[7, 0, 7, 6], [0, 3, 7, 6], [0, 2, 6, 6]], [[1, 0, 6, 9], [0, 8, 5, 8], [1, 0, 3, 7]], [[6, 0, 8, 7], [0, 4, 4, 7], [2, 0, 3, 4]], [[6, 0, 1, 8], [0, 7, 1, 5], [0, 5, 1, 3]], [[9, 0, 8, 5], [6, 0, 8, 5], [0, 1, 8, 4]], [[2, 0, 4, 4], [2, 0, 3, 4], [0, 4, 2, 2]], [[7, 0, 8, 8], [6, 0, 7, 7], [0, 3, 5, 6]], [[0, 7, 6, 4], [0, 6, 5, 3], [0, 4, 5, 2]], [[0, 8, 1, 6], [2, 0, 1, 4], [0, 7, 1, 3]], [[0, 9, 6, 7], [0, 8, 5, 7], [5, 0, 5, 6]], [[9, 0, 7, 6], [7, 0, 6, 6], [3, 0, 5, 6]], [[0, 7, 10, 2], [0, 4, 9, 2], [3, 0, 9, 2]], [[5, 0, 8, 7], [0, 4, 4, 6], [0, 4, 3, 5]], [[0, 7, 9, 9], [6, 0, 6, 8], [4, 0, 5, 7]], [[9, 0, 6, 10], [9, 0, 5, 9], [9, 0, 5, 7]], [[9, 0, 9, 10], [9, 0, 6, 7], [0, 3, 5, 2]], [[0, 6, 8, 9], [0, 5, 7, 5], [0, 4, 4, 3]], [[0, 4, 6, 3], [6, 0, 6, 2], [4, 0, 6, 2]], [[0, 7, 8, 7], [0, 5, 7, 7], [0, 2, 6, 7]], [[0, 9, 8, 3], [3, 0, 8, 3], [2, 0, 8, 3]], [[10, 0, 3, 7], [0, 6, 2, 5], [7, 0, 2, 5]], [[9, 0, 8, 3], [0, 5, 4, 1], [8, 0, 3, 1]], [[0, 4, 4, 8], [0, 4, 3, 8], [1, 0, 2, 7]], [[0, 10, 8, 7], [0, 9, 7, 6], [0, 9, 4, 6]], [[7, 0, 3, 9], [0, 2, 3, 8], [0, 1, 3, 8]], [[4, 0, 5, 8], [4, 0, 5, 6], [1, 0, 5, 5]], [[0, 10, 9, 5], [0, 7, 7, 4], [0, 6, 5, 3]], [[0, 10, 8, 6], [0, 9, 5, 6], [3, 0, 4, 4]], [[8, 0, 4, 2], [0, 7, 3, 2], [7, 0, 3, 1]], [[7, 0, 6, 7], [6, 0, 5, 5], [0, 3, 5, 5]], [[6, 0, 9, 2], [0, 4, 8, 2], [0, 2, 8, 2]], [[0, 8, 7, 4], [0, 8, 4, 3], [1, 0, 3, 3]], [[0, 7, 7, 4], [0, 7, 5, 4], [0, 6, 3, 4]], [[0, 6, 8, 3], [8, 0, 5, 2], [8, 0, 3, 2]], [[3, 0, 7, 6], [3, 0, 6, 5], [0, 6, 5, 3]], [[3, 0, 8, 10], [3, 0, 8, 8], [0, 5, 8, 8]], [[7, 0, 6, 5], [7, 0, 5, 5], [7, 0, 3, 5]], [[0, 7, 6, 5], [8, 0, 4, 5], [0, 1, 4, 5]], [[6, 0, 7, 9], [5, 0, 7, 9], [0, 1, 7, 8]], [[0, 7, 7, 6], [0, 7, 6, 4], [4, 0, 5, 1]], [[0, 9, 7, 7], [4, 0, 4, 6], [0, 7, 4, 5]], [[0, 7, 3, 6], [7, 0, 3, 6], [6, 0, 2, 6]], [[5, 0, 8, 5], [0, 4, 6, 4], [0, 1, 3, 4]], [[4, 0, 3, 7], [0, 1, 3, 3], [1, 0, 3, 1]], [[7, 0, 4, 5], [0, 2, 2, 5], [6, 0, 2, 2]], [[3, 0, 9, 5], [0, 4, 9, 3], [2, 0, 7, 2]], [[0, 9, 5, 7], [0, 7, 5, 7], [8, 0, 4, 7]], [[0, 9, 10, 9], [0, 9, 8, 8], [0, 9, 4, 8]], [[5, 0, 7, 5], [5, 0, 7, 4], [0, 3, 7, 1]], [[8, 0, 5, 7], [6, 0, 5, 4], [0, 9, 5, 4]], [[5, 0, 9, 7], [0, 7, 8, 7], [0, 5, 7, 7]], [[0, 6, 9, 7], [3, 0, 7, 5], [0, 5, 4, 3]], [[9, 0, 10, 8], [8, 0, 10, 7], [6, 0, 10, 6]], [[0, 7, 2, 5], [5, 0, 1, 4], [0, 7, 1, 4]], [[3, 0, 1, 5], [0, 8, 1, 5], [1, 0, 1, 5]], [[0, 9, 8, 7], [6, 0, 7, 6], [0, 1, 6, 6]], [[0, 1, 8, 6], [6, 0, 7, 5], [3, 0, 2, 3]], [[0, 5, 3, 6], [0, 5, 3, 3], [0, 4, 1, 2]], [[4, 0, 3, 4], [0, 9, 3, 4], [1, 0, 2, 3]], [[9, 0, 5, 6], [7, 0, 4, 6], [7, 0, 2, 6]], [[3, 0, 2, 6], [3, 0, 2, 5], [0, 4, 2, 4]], [[0, 4, 2, 8], [9, 0, 2, 5], [9, 0, 2, 3]], [[8, 0, 8, 8], [0, 4, 6, 7], [7, 0, 5, 7]], [[0, 10, 8, 8], [0, 10, 6, 5], [0, 10, 3, 5]], [[0, 5, 2, 9], [6, 0, 2, 6], [0, 2, 2, 5]], [[6, 0, 10, 7], [0, 6, 7, 4], [0, 4, 6, 2]], [[8, 0, 8, 9], [0, 7, 5, 8], [6, 0, 3, 4]], [[10, 0, 4, 5], [0, 3, 3, 5], [0, 3, 1, 1]], [[9, 0, 10, 4], [0, 5, 8, 3], [9, 0, 7, 2]], [[8, 0, 7, 2], [0, 5, 7, 2], [5, 0, 5, 2]], [[0, 6, 8, 5], [0, 5, 3, 3], [0, 5, 3, 2]], [[8, 0, 5, 7], [8, 0, 3, 5], [7, 0, 3, 4]], [[0, 10, 8, 8], [6, 0, 4, 5], [0, 4, 3, 2]], [[6, 0, 3, 10], [5, 0, 3, 10], [5, 0, 2, 10]], [[0, 9, 10, 8], [6, 0, 6, 8], [4, 0, 6, 8]], [[4, 0, 8, 9], [2, 0, 4, 7], [1, 0, 3, 5]], [[4, 0, 3, 2], [2, 0, 2, 2], [0, 8, 2, 2]], [[8, 0, 7, 8], [8, 0, 7, 4], [0, 3, 7, 4]], [[0, 9, 9, 6], [10, 0, 7, 5], [10, 0, 7, 3]], [[0, 3, 5, 8], [0, 2, 5, 7], [7, 0, 5, 6]], [[0, 4, 9, 7], [2, 0, 6, 7], [0, 2, 5, 4]], [[0, 3, 8, 10], [2, 0, 8, 9], [2, 0, 8, 8]], [[9, 0, 9, 6], [7, 0, 9, 4], [0, 3, 9, 4]], [[8, 0, 9, 9], [0, 7, 7, 5], [4, 0, 3, 5]], [[8, 0, 7, 6], [0, 7, 7, 6], [0, 6, 4, 6]], [[4, 0, 8, 7], [0, 5, 6, 3], [0, 5, 5, 3]], [[0, 6, 5, 5], [3, 0, 5, 3], [0, 6, 2, 3]], [[0, 5, 9, 7], [5, 0, 9, 4], [0, 5, 9, 4]], [[8, 0, 9, 6], [8, 0, 6, 4], [0, 2, 6, 4]], [[0, 8, 6, 7], [0, 6, 3, 4], [0, 3, 2, 2]], [[0, 6, 9, 7], [0, 4, 6, 6], [0, 3, 5, 6]], [[0, 3, 5, 7], [6, 0, 5, 5], [5, 0, 5, 5]], [[4, 0, 8, 8], [0, 9, 7, 4], [0, 8, 7, 3]], [[9, 0, 5, 6], [5, 0, 5, 3], [4, 0, 3, 2]], [[8, 0, 7, 8], [0, 4, 6, 8], [0, 4, 5, 6]], [[3, 0, 10, 8], [0, 8, 10, 8], [0, 7, 10, 6]], [[8, 0, 10, 8], [7, 0, 7, 8], [0, 3, 3, 6]], [[0, 0, 0, 0]]]
